eval/id=542_n=25_m=106.cnf
p cnf 25 106
5 -10 23 0
4 16 -21 0
5 13 -22 0
-4 -8 -24 0
-9 21 -25 0
5 -23 -25 0
-12 -14 -22 0
-3 -10 -12 0
1 -14 -17 0
5 22 -23 0
4 17 -22 0
2 -4 -23 0
-14 -16 -22 0
-1 2 -12 0
-10 -18 -21 0
-6 -20 24 0
-4 7 8 0
-1 3 8 0
11 18 25 0
12 -14 -16 0
-6 -18 -20 0
15 -18 23 0
-7 -12 24 0
-5 -11 -16 0
17 18 25 0
-1 -15 -22 0
-2 -5 -15 0
10 -14 24 0
-1 15 16 0
-3 -14 -21 0
-4 -9 -24 0
-1 15 -16 0
18 -19 -24 0
-6 7 9 0
-2 -5 17 0
-4 7 -9 0
5 8 9 0
5 -18 -21 0
-1 12 -19 0
-2 -4 12 0
-2 11 13 0
13 16 -20 0
-1 10 -17 0
3 8 14 0
2 10 -11 0
4 -12 -14 0
-1 -4 -14 0
14 -23 -24 0
-9 -19 -25 0
-9 -18 20 0
10 -17 -18 0
-3 16 -20 0
-9 17 18 0
5 6 -7 0
-6 8 -25 0
-5 -14 16 0
-5 -14 -21 0
-12 14 -20 0
1 18 24 0
9 -20 -25 0
-3 -23 -24 0
1 13 21 0
7 19 25 0
3 4 -20 0
2 -22 -25 0
-13 -14 24 0
-13 -14 17 0
3 -10 -17 0
-8 13 20 0
-5 10 17 0
-11 14 -17 0
15 17 24 0
5 11 24 0
8 14 -25 0
-8 19 24 0
6 -7 -22 0
3 -15 -24 0
-6 14 -21 0
-2 22 24 0
-3 -13 18 0
2 13 -15 0
-2 -11 21 0
-3 -14 -25 0
-5 18 -19 0
7 -22 -24 0
15 -22 -23 0
-4 -12 24 0
7 -14 21 0
-1 8 -15 0
3 5 -25 0
5 21 -23 0
-14 21 -23 0
15 -18 -20 0
7 -18 25 0
-2 15 -20 0
5 -16 25 0
2 -16 -19 0
-9 -10 17 0
2 6 16 0
-1 -2 -17 0
-4 7 -16 0
-4 -16 18 0
15 -21 24 0
-6 23 24 0
-14 24 -25 0
10 14 -15 0
