eval/id=542_n=25_m=106.wcnf
p wcnf 25 106 1000
1000 5 -10 23 0
48 4 16 -21 0
96 5 13 -22 0
1000 -4 -8 -24 0
1000 -9 21 -25 0
1000 5 -23 -25 0
1000 -12 -14 -22 0
1000 -3 -10 -12 0
1000 1 -14 -17 0
1000 5 22 -23 0
3 4 17 -22 0
27 2 -4 -23 0
1000 -14 -16 -22 0
1000 -1 2 -12 0
67 -10 -18 -21 0
1000 -6 -20 24 0
1000 -4 7 8 0
1000 -1 3 8 0
1000 11 18 25 0
90 12 -14 -16 0
1000 -6 -18 -20 0
65 15 -18 23 0
1000 -7 -12 24 0
7 -5 -11 -16 0
1000 17 18 25 0
1000 -1 -15 -22 0
1000 -2 -5 -15 0
1000 10 -14 24 0
59 -1 15 16 0
1000 -3 -14 -21 0
94 -4 -9 -24 0
52 -1 15 -16 0
1000 18 -19 -24 0
1000 -6 7 9 0
52 -2 -5 17 0
90 -4 7 -9 0
1000 5 8 9 0
1000 5 -18 -21 0
1000 -1 12 -19 0
1000 -2 -4 12 0
1000 -2 11 13 0
1000 13 16 -20 0
1000 -1 10 -17 0
51 3 8 14 0
8 2 10 -11 0
75 4 -12 -14 0
92 -1 -4 -14 0
1000 14 -23 -24 0
1000 -9 -19 -25 0
1000 -9 -18 20 0
64 10 -17 -18 0
1000 -3 16 -20 0
1000 -9 17 18 0
1000 5 6 -7 0
1000 -6 8 -25 0
1000 -5 -14 16 0
1000 -5 -14 -21 0
1000 -12 14 -20 0
1000 1 18 24 0
1000 9 -20 -25 0
1000 -3 -23 -24 0
1000 1 13 21 0
1000 7 19 25 0
1000 3 4 -20 0
1000 2 -22 -25 0
90 -13 -14 24 0
97 -13 -14 17 0
1000 3 -10 -17 0
1000 -8 13 20 0
1000 -5 10 17 0
1000 -11 14 -17 0
1000 15 17 24 0
1000 5 11 24 0
1000 8 14 -25 0
72 -8 19 24 0
1000 6 -7 -22 0
1000 3 -15 -24 0
1000 -6 14 -21 0
1000 -2 22 24 0
1000 -3 -13 18 0
38 2 13 -15 0
1000 -2 -11 21 0
1000 -3 -14 -25 0
1000 -5 18 -19 0
1000 7 -22 -24 0
1000 15 -22 -23 0
1000 -4 -12 24 0
1000 7 -14 21 0
34 -1 8 -15 0
48 3 5 -25 0
1000 5 21 -23 0
1000 -14 21 -23 0
1000 15 -18 -20 0
1000 7 -18 25 0
1000 -2 15 -20 0
1000 5 -16 25 0
33 2 -16 -19 0
1000 -9 -10 17 0
1000 2 6 16 0
1000 -1 -2 -17 0
1000 -4 7 -16 0
36 -4 -16 18 0
1000 15 -21 24 0
1000 -6 23 24 0
1000 -14 24 -25 0
1000 10 14 -15 0
